&CONTROL
   calculation     = 'nscf'
   outdir          = 'pwscf_output'
   prefix          = 'pwscf'
   pseudo_dir      = './'
   verbosity       = 'high'
/

&SYSTEM
   ecutrho         = 2000
   ecutwfc         = 200
   ibrav           = 0
   input_dft       = 'pbe'
   nat             = 2
   nbnd            = 8
   nspin           = 1
   ntyp            = 1
   tot_charge      = 0
/

&ELECTRONS
   conv_thr        = 1e-10
/


ATOMIC_SPECIES 
   C  12.011 C.ccECP.upf

ATOMIC_POSITIONS bohr
   C        0.00000000       0.00000000       0.00000000 
   C        1.68658058       1.68658058       1.68658058 

K_POINTS crystal
   16
         0.00000000       0.00000000       0.00000000       0.25000000 
         0.25000000       0.00000000       0.25000000       0.75000000 
         0.50000000       0.25000000       0.25000000       0.75000000 
         0.50000000       0.50000000       0.50000000       0.25000000 
         0.50000000       0.00000000       0.50000000       0.25000000 
         0.75000000       0.00000000       0.75000000       0.75000000 
         0.00000000       0.25000000       0.75000000       0.75000000 
         0.00000000       0.50000000       0.00000000       0.25000000 
         0.50000000       0.50000000       0.00000000       0.25000000 
         0.75000000       0.50000000       0.25000000       0.75000000 
         0.00000000       0.75000000       0.25000000       0.75000000 
         0.00000000       0.00000000       0.50000000       0.25000000 
         0.00000000       0.50000000       0.50000000       0.25000000 
         0.25000000       0.50000000       0.75000000       0.75000000 
         0.50000000       0.75000000       0.75000000       0.75000000 
         0.50000000       0.00000000       0.00000000       0.25000000 

CELL_PARAMETERS bohr
         3.37316115       3.37316115       0.00000000 
         0.00000000       3.37316115       3.37316115 
         3.37316115       0.00000000       3.37316115 


