&inputpp
  prefix = 'pwscf'
  outdir = 'pwscf_output'
  write_psir = .false.
/
